
******************************************************************************
This program contains Ipopt, a library for large-scale nonlinear optimization.
 Ipopt is released as open source code under the Eclipse Public License (EPL).
         For more information visit http://projects.coin-or.org/Ipopt
******************************************************************************

This is Ipopt version 3.13.2, running with linear solver mumps.
NOTE: Other linear solvers might be more efficient (see Ipopt documentation).

Number of nonzeros in equality constraint Jacobian...:        0
Number of nonzeros in inequality constraint Jacobian.:     8450
Number of nonzeros in Lagrangian Hessian.............:        0

Total number of variables............................:     4225
                     variables with only lower bounds:        0
                variables with lower and upper bounds:     4225
                     variables with only upper bounds:        0
Total number of equality constraints.................:        0
Total number of inequality constraints...............:        2
        inequality constraints with only lower bounds:        2
   inequality constraints with lower and upper bounds:        0
        inequality constraints with only upper bounds:        0

iter    objective    inf_pr   inf_du lg(mu)  ||d||  lg(rg) alpha_du alpha_pr  ls
   0  1.8663436e-01 1.83e+01 3.59e-01  -1.0 0.00e+00    -  0.00e+00 0.00e+00   0
   1  1.8694340e-01 1.83e+01 5.44e+01  -1.0 5.13e+00    -  1.06e-01 1.93e-03f  1
   2  2.1215417e-01 1.76e+01 5.83e+01  -1.0 3.59e+00    -  5.60e-02 3.49e-02f  1
   3  2.1344977e-01 1.76e+01 1.79e+03  -1.0 1.78e+00    -  1.53e-01 1.71e-03f  1
   4  1.2983514e+00 6.51e+00 2.62e+01  -1.0 1.57e+00    -  3.60e-01 5.85e-01f  1
   5  9.9732837e+00 1.20e+00 4.16e+01  -1.0 7.16e-01    -  8.01e-01 8.32e-01h  1
   6  5.3828434e+00 1.04e+00 1.05e+03  -1.0 6.59e-01    -  2.39e-01 9.39e-01h  1
   7  7.3866462e+00 7.02e-01 1.69e+02  -1.0 1.45e+00    -  1.00e+00 4.04e-01f  1
   8  1.1468486e+01 4.52e-01 9.35e+01  -1.0 7.32e-01    -  4.49e-01 4.52e-01h  1
   9  2.1948640e+01 2.70e-01 3.05e+01  -1.0 5.06e-01    -  3.50e-01 4.38e-01h  1
iter    objective    inf_pr   inf_du lg(mu)  ||d||  lg(rg) alpha_du alpha_pr  ls
  10  2.3308415e+01 9.18e-02 1.81e+02  -1.0 2.59e-01    -  2.44e-01 9.65e-01h  1
  11  2.9012686e+01 7.99e-02 2.13e+02  -1.0 1.36e-01    -  1.00e+00 2.56e-01f  1
  12  3.8582194e+01 5.16e-02 4.65e+01  -1.0 2.94e-01    -  1.03e-01 4.08e-01h  1
  13  4.0782943e+01 4.15e-02 5.05e+02  -1.0 8.99e-02    -  1.00e+00 2.00e-01h  1
  14  5.4521790e+01 7.13e-03 9.13e+01  -1.0 4.59e-02    -  9.29e-01 9.25e-01h  1
  15  5.3873122e+01 3.89e-03 8.22e+01  -1.0 6.57e-02    -  2.80e-01 5.03e-01h  1
  16  5.4582338e+01 2.45e-03 3.14e+02  -1.0 7.69e-02    -  1.00e+00 4.27e-01h  1
  17  5.5319849e+01 5.74e-05 3.77e+01  -1.0 2.75e-02    -  7.99e-01 1.00e+00h  1
  18  5.3818505e+01 1.30e-04 4.45e+01  -1.0 2.88e-02    -  9.70e-01 7.10e-01f  1
  19  5.2733183e+01 2.40e-04 7.28e+01  -1.0 2.99e-02    -  8.97e-01 7.77e-01f  1
iter    objective    inf_pr   inf_du lg(mu)  ||d||  lg(rg) alpha_du alpha_pr  ls
  20  5.1269841e+01 2.74e-04 3.53e+01  -1.0 4.78e-02    -  5.67e-01 6.26e-01f  1
  21  5.3806993e+01 4.75e-04 7.23e+01  -1.0 5.26e-02    -  1.00e+00 3.72e-01f  1
  22  5.2209604e+01 4.17e-04 3.00e+02  -1.0 3.09e-02    -  7.59e-01 5.00e-01f  2
  23  5.1476499e+01 2.94e-04 1.68e+02  -1.0 5.71e-02    -  7.29e-01 3.47e-01f  2
  24  5.1266032e+01 2.02e-06 9.94e+00  -1.0 7.29e-03    -  1.00e+00 1.00e+00h  1
  25  5.0529070e+01 0.00e+00 1.15e+01  -1.0 4.95e-03    -  1.00e+00 1.00e+00f  1
  26  5.1717722e+01 0.00e+00 2.78e+01  -1.0 1.02e-02    -  1.00e+00 1.00e+00f  1
  27  5.1171895e+01 3.46e-05 2.31e+01  -1.0 1.32e-02    -  1.00e+00 1.00e+00f  1
  28  5.1034922e+01 1.41e-05 6.76e+01  -1.0 2.07e-02    -  1.00e+00 5.00e-01f  2
  29  5.1061594e+01 6.38e-05 3.48e+01  -1.0 7.98e-03    -  1.00e+00 1.00e+00f  1
iter    objective    inf_pr   inf_du lg(mu)  ||d||  lg(rg) alpha_du alpha_pr  ls
  30  5.0851032e+01 5.31e-05 9.54e+00  -1.0 1.91e-02    -  1.00e+00 5.00e-01f  2
  31  5.0902110e+01 4.23e-05 1.93e+01  -1.0 2.66e-02    -  1.00e+00 5.00e-01f  2
  32  5.0901811e+01 0.00e+00 1.13e+01  -1.0 1.52e-02    -  1.00e+00 1.00e+00f  1
  33  5.1499116e+01 2.19e-04 3.51e+01  -1.0 5.35e-02    -  1.00e+00 1.00e+00f  1
  34  4.8567164e+01 2.20e-04 4.59e+01  -1.0 6.76e-02    -  9.36e-01 5.00e-01f  2
  35  5.0239519e+01 3.05e-04 1.31e+02  -1.0 1.67e-01    -  1.00e+00 2.19e-01f  2
  36  4.9748221e+01 1.96e-04 4.20e+01  -1.0 2.69e-02    -  1.00e+00 5.00e-01f  2
  37  4.9464563e+01 1.38e-04 8.72e+00  -1.0 1.93e-02    -  1.00e+00 2.50e-01f  3
  38  4.9532537e+01 1.16e-04 3.19e+01  -1.0 3.41e-02    -  1.00e+00 1.25e-01f  4
  39  4.9578854e+01 7.75e-05 9.52e+00  -1.0 3.28e-02    -  1.00e+00 2.50e-01f  3
iter    objective    inf_pr   inf_du lg(mu)  ||d||  lg(rg) alpha_du alpha_pr  ls
  40  4.9748989e+01 0.00e+00 6.28e+00  -1.0 4.36e-02    -  1.00e+00 1.00e+00f  1
  41  5.1068805e+01 1.79e-04 3.31e+01  -1.0 1.22e-01    -  1.00e+00 1.00e+00f  1
  42  4.8835338e+01 9.87e-05 1.66e+01  -1.0 3.98e-02    -  1.00e+00 1.00e+00f  1
  43  4.8056693e+01 7.23e-04 2.06e+01  -1.0 4.26e-02    -  1.00e+00 1.00e+00f  1
  44  5.0737172e+01 6.67e-04 2.59e+01  -1.0 5.55e-02    -  1.00e+00 1.00e+00f  1
  45  4.8353760e+01 6.48e-04 3.13e+01  -1.0 3.68e-02    -  6.68e-01 2.50e-01f  3
  46  4.8443578e+01 7.22e-05 1.29e+01  -1.0 2.23e-02    -  1.00e+00 1.00e+00h  1
  47  4.8891998e+01 6.74e-05 5.62e+01  -1.0 2.90e-02    -  1.00e+00 2.50e-01f  3
  48  4.8890554e+01 5.33e-05 1.09e+01  -1.0 6.70e-03    -  1.00e+00 1.25e-01f  4
  49  4.8744348e+01 3.10e-05 2.10e+01  -1.0 9.13e-03    -  1.00e+00 2.50e-01f  3
iter    objective    inf_pr   inf_du lg(mu)  ||d||  lg(rg) alpha_du alpha_pr  ls
  50  4.8781459e+01 2.60e-05 1.34e+01  -1.0 1.67e-02    -  1.00e+00 6.25e-02f  5
  51  4.8833054e+01 0.00e+00 4.39e+00  -1.0 5.66e-03    -  1.00e+00 1.00e+00h  1
  52  4.8419814e+01 0.00e+00 8.71e+00  -1.0 9.21e-03    -  1.00e+00 2.50e-01f  3
  53  4.8493057e+01 0.00e+00 1.11e+01  -1.0 8.07e-03    -  1.00e+00 5.00e-01f  2
  54  4.9548087e+01 0.00e+00 1.75e+01  -1.0 2.98e-02    -  1.00e+00 5.00e-01f  2
  55  4.8841720e+01 0.00e+00 1.34e+01  -1.0 1.70e-02    -  1.00e+00 1.00e+00f  1
  56  4.7713138e+01 0.00e+00 2.22e+01  -1.0 2.68e-02    -  1.00e+00 5.00e-01f  2
  57  4.8080292e+01 0.00e+00 1.55e+01  -1.0 1.89e-02    -  1.00e+00 5.00e-01f  2
  58  4.8857441e+01 1.46e-05 1.07e+01  -1.0 1.09e-02    -  1.00e+00 1.00e+00f  1
  59  4.8671978e+01 3.05e-05 1.09e+01  -1.0 1.24e-02    -  1.00e+00 1.00e+00f  1
iter    objective    inf_pr   inf_du lg(mu)  ||d||  lg(rg) alpha_du alpha_pr  ls
  60  4.7680343e+01 2.03e-05 1.55e+01  -1.0 1.31e-02    -  1.00e+00 5.00e-01f  2
  61  4.8255195e+01 4.29e-06 1.78e+01  -1.0 1.82e-02    -  1.00e+00 5.00e-01f  2
  62  4.8403012e+01 0.00e+00 3.14e+01  -1.0 1.32e-02    -  1.00e+00 2.50e-01f  3
  63  4.8523174e+01 0.00e+00 6.54e+00  -1.0 5.43e-03    -  1.00e+00 1.00e+00h  1
  64  4.8510029e+01 0.00e+00 7.74e+00  -1.0 3.91e-03    -  1.00e+00 1.00e+00f  1
  65  4.8307754e+01 0.00e+00 7.55e+00  -1.0 7.88e-03    -  1.00e+00 5.00e-01f  2
  66  4.8415677e+01 0.00e+00 8.62e+00  -1.0 4.48e-03    -  1.00e+00 5.00e-01f  2
  67  4.8388265e+01 0.00e+00 2.78e+00  -1.0 4.48e-03    -  1.00e+00 1.00e+00f  1
  68  4.8705465e+01 0.00e+00 5.71e+00  -1.0 5.85e-03    -  1.00e+00 5.00e-01f  2
  69  4.8386553e+01 0.00e+00 6.19e+00  -1.0 1.08e-02    -  1.00e+00 5.00e-01f  2
iter    objective    inf_pr   inf_du lg(mu)  ||d||  lg(rg) alpha_du alpha_pr  ls
  70  4.7938574e+01 0.00e+00 8.06e+00  -1.0 1.65e-02    -  1.00e+00 1.00e+00f  1
  71  4.8643812e+01 0.00e+00 1.39e+01  -1.0 1.08e-02    -  1.00e+00 1.00e+00f  1
  72  4.8749092e+01 0.00e+00 2.36e+01  -1.0 2.21e-02    -  1.00e+00 2.50e-01f  3
  73  4.8663912e+01 0.00e+00 1.28e+01  -1.0 7.93e-03    -  1.00e+00 2.50e-01f  3
  74  4.8350594e+01 0.00e+00 3.37e+00  -1.0 8.35e-03    -  1.00e+00 5.00e-01f  2
  75  4.8362098e+01 0.00e+00 3.29e+00  -1.0 8.87e-03    -  1.00e+00 1.00e+00h  1
  76  4.8555534e+01 0.00e+00 5.86e+00  -1.0 9.55e-03    -  1.00e+00 5.00e-01f  2
  77  4.8317062e+01 0.00e+00 3.50e+00  -1.0 4.79e-03    -  1.00e+00 5.00e-01f  2
  78  4.8305516e+01 0.00e+00 1.14e+01  -1.0 1.81e-02    -  1.00e+00 2.50e-01f  3
  79  4.8345377e+01 0.00e+00 2.86e+00  -1.0 4.73e-03    -  1.00e+00 1.00e+00h  1
iter    objective    inf_pr   inf_du lg(mu)  ||d||  lg(rg) alpha_du alpha_pr  ls
  80  4.8396165e+01 0.00e+00 3.37e+00  -1.0 1.49e-02    -  1.00e+00 5.00e-01f  2
  81  4.8662455e+01 0.00e+00 4.29e+00  -1.0 7.57e-03    -  1.00e+00 1.00e+00f  1
  82  4.8401660e+01 0.00e+00 4.15e+00  -1.0 1.22e-02    -  1.00e+00 5.00e-01f  2
  83  4.8171477e+01 0.00e+00 4.12e+00  -1.0 9.55e-03    -  1.00e+00 5.00e-01f  2
  84  4.8447995e+01 0.00e+00 5.81e+00  -1.0 4.46e-03    -  1.00e+00 5.00e-01f  2
  85  4.8419948e+01 0.00e+00 6.84e+00  -1.0 5.85e-03    -  1.00e+00 5.00e-01f  2
  86  4.8399473e+01 0.00e+00 5.82e+00  -1.0 1.09e-02    -  1.00e+00 2.50e-01f  3
  87  4.8399680e+01 0.00e+00 3.06e+00  -1.0 8.45e-03    -  1.00e+00 1.00e+00h  1
  88  4.8331327e+01 0.00e+00 2.93e+00  -1.0 5.83e-03    -  1.00e+00 1.00e+00f  1
  89  4.8470869e+01 0.00e+00 2.85e+00  -1.0 7.39e-03    -  1.00e+00 2.50e-01f  3
iter    objective    inf_pr   inf_du lg(mu)  ||d||  lg(rg) alpha_du alpha_pr  ls
  90  4.8371852e+01 0.00e+00 2.59e+00  -1.0 3.20e-03    -  1.00e+00 5.00e-01f  2
  91  4.8335442e+01 0.00e+00 1.56e+00  -1.0 5.50e-03    -  1.00e+00 1.00e+00h  1
  92  4.8431357e+01 0.00e+00 1.25e+00  -1.0 5.37e-03    -  1.00e+00 5.00e-01f  2
  93  4.8379622e+01 0.00e+00 1.02e+00  -1.0 4.22e-03    -  1.00e+00 1.00e+00f  1
  94  4.8359969e+01 0.00e+00 1.24e+00  -1.0 4.43e-03    -  1.00e+00 1.00e+00f  1
  95  4.8347162e+01 0.00e+00 1.50e+00  -1.0 3.58e-03    -  1.00e+00 2.50e-01f  3
  96  4.8374148e+01 0.00e+00 1.86e+00  -1.0 3.98e-03    -  1.00e+00 5.00e-01f  2
  97  4.8363695e+01 0.00e+00 6.24e-01  -1.0 4.24e-03    -  1.00e+00 2.50e-01h  3
  98  3.1832427e+01 4.11e-02 7.36e+02  -1.7 1.33e-01    -  1.95e-01 1.00e+00f  1
  99  2.9364521e+01 1.85e-02 4.31e+02  -1.7 7.62e-02    -  5.95e-01 1.00e+00f  1
iter    objective    inf_pr   inf_du lg(mu)  ||d||  lg(rg) alpha_du alpha_pr  ls
 100  3.3546149e+01 1.92e-02 2.78e+02  -1.7 9.84e-02    -  4.67e-01 5.80e-01f  1
 101  3.3775850e+01 1.72e-02 2.23e+02  -1.7 1.21e-01    -  1.94e-01 1.68e-01f  1
 102  3.5196829e+01 1.21e-02 7.43e+01  -1.7 8.35e-02    -  7.34e-01 3.87e-01h  1
 103  3.4813929e+01 8.22e-03 5.09e+01  -1.7 9.49e-02    -  3.03e-01 5.74e-01h  1
 104  3.5386870e+01 5.18e-03 3.66e+01  -1.7 5.20e-02    -  3.14e-01 5.67e-01h  1
 105  3.5645275e+01 3.79e-03 1.94e+01  -1.7 7.00e-02    -  6.54e-01 4.79e-01h  1
 106  3.7446895e+01 1.62e-03 3.24e+01  -1.7 1.72e-02    -  5.06e-01 8.82e-01h  1
 107  3.6220109e+01 1.26e-03 6.29e+01  -1.7 2.39e-02    -  1.00e+00 5.00e-01f  2
 108  3.6205533e+01 1.11e-03 7.17e+01  -1.7 1.02e-02    -  8.33e-01 1.25e-01f  4
 109  3.6271045e+01 9.83e-04 7.62e+01  -1.7 1.96e-02    -  1.00e+00 1.25e-01h  4
iter    objective    inf_pr   inf_du lg(mu)  ||d||  lg(rg) alpha_du alpha_pr  ls
 110  3.6786521e+01 3.39e-04 1.00e+01  -1.7 1.50e-02    -  1.00e+00 1.00e+00h  1
 111  3.6542356e+01 2.29e-04 1.08e+01  -1.7 6.77e-03    -  1.00e+00 1.00e+00f  1
 112  3.6520140e+01 1.31e-04 5.74e+00  -1.7 3.94e-03    -  1.00e+00 5.00e-01f  2
 113  3.6591552e+01 0.00e+00 2.58e+00  -1.7 1.59e-03    -  1.00e+00 1.00e+00h  1
 114  3.6605467e+01 0.00e+00 9.32e-01  -1.7 4.58e-04    -  1.00e+00 1.00e+00f  1
 115  3.6552885e+01 0.00e+00 7.80e-01  -1.7 3.09e-04    -  1.00e+00 1.00e+00h  1
 116  3.6542960e+01 0.00e+00 1.04e+00  -1.7 8.29e-04    -  1.00e+00 1.00e+00f  1
 117  3.6109461e+01 4.15e-05 9.99e+00  -1.7 1.58e-02    -  1.00e+00 5.00e-01f  2
 118  3.5982506e+01 1.68e-04 1.09e+01  -1.7 1.85e-02    -  1.00e+00 1.00e+00f  1
 119  3.5641286e+01 2.57e-04 2.69e+01  -1.7 7.24e-02    -  7.47e-01 2.50e-01f  3
iter    objective    inf_pr   inf_du lg(mu)  ||d||  lg(rg) alpha_du alpha_pr  ls
 120  3.5693398e+01 2.26e-04 9.38e+00  -1.7 1.77e-02    -  6.21e-01 2.50e-01f  3
 121  3.5587518e+01 9.18e-05 3.73e+00  -1.7 4.63e-03    -  1.00e+00 1.00e+00f  1
 122  3.5437349e+01 4.70e-05 1.94e+00  -1.7 8.03e-03    -  1.00e+00 5.00e-01f  2
 123  3.5160271e+01 4.74e-05 5.09e+00  -1.7 1.96e-02    -  1.00e+00 5.00e-01f  2
 124  3.5121520e+01 2.52e-04 9.21e+00  -1.7 4.02e-02    -  1.00e+00 1.00e+00f  1
 125  3.4869556e+01 5.56e-04 8.13e+00  -1.7 9.71e-02    -  9.66e-01 5.00e-01f  2
 126  3.4703326e+01 5.80e-04 1.09e+01  -1.7 5.04e-02    -  8.31e-01 2.50e-01f  3
 127  3.4360683e+01 6.32e-04 1.26e+01  -1.7 3.85e-02    -  1.00e+00 5.00e-01f  2
 128  3.4480728e+01 5.08e-04 6.87e+00  -1.7 1.94e-02    -  5.14e-01 2.50e-01f  3
 129  3.4392682e+01 3.94e-04 4.21e+01  -1.7 2.51e-02    -  1.00e+00 2.50e-01f  3
iter    objective    inf_pr   inf_du lg(mu)  ||d||  lg(rg) alpha_du alpha_pr  ls
 130  3.4564656e+01 1.33e-04 9.95e+00  -1.7 2.16e-02    -  1.00e+00 1.00e+00h  1
 131  3.4376836e+01 1.40e-04 8.22e+00  -1.7 1.98e-02    -  1.00e+00 5.00e-01f  2
 132  3.4407953e+01 1.72e-04 2.21e+01  -1.7 2.56e-02    -  1.00e+00 5.00e-01f  2
 133  3.4476486e+01 1.49e-04 6.70e+00  -1.7 2.07e-02    -  1.00e+00 5.00e-01f  2
 134  3.4359875e+01 8.89e-05 8.50e+00  -1.7 1.06e-02    -  1.00e+00 5.00e-01f  2
 135  3.4370897e+01 6.15e-05 6.60e+00  -1.7 4.58e-03    -  1.00e+00 2.50e-01f  3
 136  3.4350439e+01 0.00e+00 1.81e+00  -1.7 4.31e-03    -  1.00e+00 1.00e+00h  1
 137  3.4396837e+01 0.00e+00 5.72e+00  -1.7 2.12e-02    -  1.00e+00 5.00e-01f  2
 138  3.4315407e+01 1.02e-05 4.98e+00  -1.7 2.43e-02    -  1.00e+00 5.00e-01f  2
 139  3.4490683e+01 7.34e-05 1.89e+01  -1.7 5.11e-02    -  1.00e+00 2.46e-01f  3
iter    objective    inf_pr   inf_du lg(mu)  ||d||  lg(rg) alpha_du alpha_pr  ls
 140  3.4229050e+01 1.17e-04 7.02e+00  -1.7 1.99e-02    -  1.00e+00 5.00e-01f  2
 141  3.4279587e+01 5.98e-05 4.49e+00  -1.7 8.02e-03    -  1.00e+00 1.00e+00f  1
 142  3.4208117e+01 4.81e-05 1.79e+01  -1.7 1.87e-02    -  1.00e+00 5.00e-01f  2
 143  3.4228831e+01 3.39e-05 3.80e+00  -1.7 1.25e-02    -  1.00e+00 2.50e-01f  3
 144  3.4265907e+01 2.76e-05 6.06e+00  -1.7 2.48e-02    -  1.00e+00 2.50e-01f  3
 145  3.4182503e+01 2.31e-05 1.10e+01  -1.7 1.54e-02    -  1.00e+00 2.50e-01f  3
 146  3.4199550e+01 9.76e-06 2.95e+00  -1.7 1.72e-02    -  1.00e+00 5.00e-01f  2
 147  3.4175192e+01 2.45e-05 1.06e+01  -1.7 5.58e-02    -  1.00e+00 2.50e-01f  3
 148  3.4179360e+01 4.77e-05 3.87e+00  -1.7 2.55e-02    -  1.00e+00 5.00e-01f  2
 149  3.4163484e+01 3.72e-05 5.79e+00  -1.7 3.07e-02    -  1.00e+00 2.50e-01f  3
iter    objective    inf_pr   inf_du lg(mu)  ||d||  lg(rg) alpha_du alpha_pr  ls
 150  3.4017230e+01 1.13e-04 3.83e+00  -1.7 5.09e-02    -  1.00e+00 5.00e-01f  2
 151  3.3925979e+01 1.01e-04 5.70e+00  -1.7 2.76e-02    -  1.00e+00 5.00e-01f  2
 152  3.4585484e+01 5.44e-04 1.90e+01  -1.7 4.77e-02    -  9.63e-01 1.00e+00w  1
 153  3.4137690e+01 9.44e-04 1.99e+01  -1.7 1.91e-02    -  9.15e-01 1.00e+00f  1
 154  3.3335099e+01 9.99e-04 1.23e+01  -1.7 7.36e-02    -  4.83e-01 4.62e-01f  2
 155  3.3381475e+01 8.71e-04 8.28e+01  -1.7 4.09e-02    -  9.37e-01 2.17e-01f  3
 156  3.3373219e+01 7.05e-04 2.42e+01  -1.7 3.07e-02    -  7.40e-01 2.29e-01f  3
 157  3.3422402e+01 6.62e-04 2.47e+01  -1.7 3.93e-02    -  1.00e+00 6.25e-02h  5
 158  3.3911838e+01 0.00e+00 3.28e+00  -1.7 9.72e-03    -  1.00e+00 1.00e+00h  1
 159  3.3839306e+01 0.00e+00 6.31e+00  -1.7 7.42e-03    -  1.00e+00 5.00e-01f  2
iter    objective    inf_pr   inf_du lg(mu)  ||d||  lg(rg) alpha_du alpha_pr  ls
 160  3.3809040e+01 0.00e+00 6.82e+00  -1.7 2.45e-03    -  1.00e+00 5.00e-01f  2
 161  3.3782961e+01 0.00e+00 3.17e+00  -1.7 2.64e-03    -  1.00e+00 5.00e-01f  2
 162  3.3790247e+01 0.00e+00 8.79e-01  -1.7 1.49e-03    -  1.00e+00 1.00e+00h  1
 163  3.3781488e+01 0.00e+00 1.38e+00  -1.7 2.64e-03    -  1.00e+00 1.00e+00f  1
 164  3.3751284e+01 0.00e+00 1.17e+00  -1.7 2.34e-03    -  1.00e+00 1.00e+00f  1
 165  3.3762804e+01 0.00e+00 1.77e+00  -1.7 1.69e-03    -  1.00e+00 1.00e+00f  1
 166  3.3852550e+01 0.00e+00 1.00e+00  -1.7 3.30e-03    -  1.00e+00 1.00e+00f  1
 167  3.3772631e+01 0.00e+00 1.40e+01  -1.7 2.62e-03    -  1.00e+00 5.00e-01f  2
 168  3.3790320e+01 0.00e+00 1.77e+00  -1.7 3.89e-03    -  1.00e+00 1.00e+00f  1
 169  3.3739725e+01 0.00e+00 3.23e+00  -1.7 1.09e-02    -  1.00e+00 5.00e-01f  2
iter    objective    inf_pr   inf_du lg(mu)  ||d||  lg(rg) alpha_du alpha_pr  ls
 170  3.3803882e+01 0.00e+00 2.86e+00  -1.7 4.13e-03    -  1.00e+00 5.00e-01f  2
 171  3.3839311e+01 0.00e+00 1.07e+01  -1.7 1.86e-02    -  1.00e+00 5.00e-01f  2
 172  3.3783514e+01 0.00e+00 2.12e+00  -1.7 2.89e-03    -  1.00e+00 5.00e-01f  2
 173  3.3762929e+01 0.00e+00 5.62e+00  -1.7 4.65e-03    -  1.00e+00 5.00e-01h  2
 174  3.3791636e+01 0.00e+00 5.17e+00  -1.7 7.45e-03    -  1.00e+00 2.50e-01f  3
 175  3.3778095e+01 0.00e+00 1.84e+00  -1.7 8.57e-03    -  1.00e+00 5.00e-01f  2
 176  3.3755308e+01 0.00e+00 3.08e+00  -1.7 1.78e-02    -  1.00e+00 2.50e-01f  3
 177  3.3775477e+01 0.00e+00 2.35e+00  -1.7 1.03e-02    -  1.00e+00 5.00e-01f  2
 178  3.3657097e+01 0.00e+00 2.95e+00  -1.7 2.10e-02    -  1.00e+00 5.00e-01f  2
 179  3.4479728e+01 2.34e-04 1.61e+01  -1.7 3.82e-02    -  1.00e+00 1.00e+00w  1
iter    objective    inf_pr   inf_du lg(mu)  ||d||  lg(rg) alpha_du alpha_pr  ls
 180  3.3545307e+01 2.04e-04 3.35e+00  -1.7 3.08e-02    -  1.00e+00 1.00e+00f  1
 181  3.3563155e+01 1.81e-04 1.27e+01  -1.7 2.52e-02    -  1.00e+00 2.50e-01f  3
 182  3.3585060e+01 0.00e+00 3.45e+00  -1.7 8.59e-03    -  1.00e+00 1.00e+00h  1
 183  3.3560212e+01 0.00e+00 7.85e+00  -1.7 2.17e-02    -  1.00e+00 2.50e-01f  3
 184  3.3540596e+01 0.00e+00 6.59e+00  -1.7 1.17e-02    -  1.00e+00 5.00e-01f  2
 185  3.3486259e+01 5.12e-06 5.46e+00  -1.7 2.48e-02    -  9.17e-01 2.50e-01f  3
 186  3.3506443e+01 0.00e+00 7.12e+00  -1.7 6.77e-03    -  1.00e+00 2.50e-01f  3
 187  3.3490648e+01 0.00e+00 1.39e+00  -1.7 3.15e-03    -  1.00e+00 5.00e-01f  2
 188  3.3488794e+01 0.00e+00 4.47e+00  -1.7 5.95e-03    -  1.00e+00 2.50e-01f  3
 189  3.3438146e+01 0.00e+00 2.36e+00  -1.7 1.52e-02    -  1.00e+00 2.50e-01f  3
iter    objective    inf_pr   inf_du lg(mu)  ||d||  lg(rg) alpha_du alpha_pr  ls
 190  3.3137149e+01 1.21e-06 5.01e+00  -1.7 4.65e-02    -  1.00e+00 1.00e+00f  1
 191  3.3430797e+01 2.48e-04 6.29e+00  -1.7 6.69e-02    -  1.00e+00 1.00e+00f  1
 192  3.3483462e+01 2.21e-04 4.91e+00  -1.7 2.06e-02    -  1.00e+00 5.00e-01f  2
 193  3.3284391e+01 2.44e-04 4.02e+00  -1.7 4.27e-02    -  8.49e-01 2.50e-01f  3
 194  3.3243503e+01 2.17e-04 3.71e+00  -1.7 2.87e-02    -  1.00e+00 1.25e-01f  4
 195  3.3120006e+01 1.84e-04 8.14e+00  -1.7 3.16e-02    -  1.00e+00 2.50e-01f  3
 196  3.3040321e+01 1.74e-04 2.63e+00  -1.7 3.99e-02    -  1.00e+00 6.25e-02f  5
 197  3.3012413e+01 3.46e-05 3.90e+00  -1.7 8.46e-03    -  1.00e+00 1.00e+00h  1
 198  3.3341426e+01 9.38e-05 6.04e+00  -1.7 7.99e-03    -  1.00e+00 1.00e+00f  1
 199  3.3056359e+01 1.35e-04 2.15e+01  -1.7 1.13e-02    -  1.00e+00 5.00e-01f  2
iter    objective    inf_pr   inf_du lg(mu)  ||d||  lg(rg) alpha_du alpha_pr  ls
 200  3.2899753e+01 1.27e-04 2.72e+01  -1.7 2.21e-02    -  1.00e+00 2.50e-01f  3

Number of Iterations....: 200

                                   (scaled)                 (unscaled)
Objective...............:   3.2899753228725714e+01    3.2899753228725714e+01
Dual infeasibility......:   2.7218052739317443e+01    2.7218052739317443e+01
Constraint violation....:   1.2695470115106945e-04    1.2695470115106945e-04
Complementarity.........:   2.6150390859961539e-02    2.6150390859961539e-02
Overall NLP error.......:   2.7218052739317443e+01    2.7218052739317443e+01


Number of objective function evaluations             = 686
Number of objective gradient evaluations             = 201
Number of equality constraint evaluations            = 0
Number of inequality constraint evaluations          = 686
Number of equality constraint Jacobian evaluations   = 0
Number of inequality constraint Jacobian evaluations = 201
Number of Lagrangian Hessian evaluations             = 0
Total CPU secs in IPOPT (w/o function evaluations)   =     41.194
Total CPU secs in NLP function evaluations           =   1479.201

EXIT: Maximum Number of Iterations Exceeded.
